100 4047
210 414 804 404 461 577 469 827 994 706 579 755 95 346 619 308 994 98 78 185 269 79 424 568 277 894 964 471 62 472 369 152 384 303 895 357 173 631 626 795 48 829 517 123 830 179 48 12 264 905 587 858 583 197 784 98 702 820 188 163 788 438 357 317 470 109 557 885 312 557 805 231 221 69 154 106 18 13 348 503 735 678 921 946 261 348 198 335 488 846 478 309 437 108 328 86 301 328 380 148 
697 602 500 369 822 431 167 889 767 152 349 217 958 626 670 682 735 998 411 428 455 365 718 436 358 94 460 717 511 909 139 49 237 555 502 719 326 226 302 268 801 399 40 43 305 488 339 335 961 630 680 638 695 154 266 477 587 936 22 576 94 16 353 400 333 738 22 900 358 359 911 947 48 333 457 310 620 393 746 312 559 35 228 415 199 375 89 906 348 81 374 410 638 277 602 275 499 510 270 498 
